Version identifier: 22.1.1.0 | 2022-11-28 | 9160aff4d
CPXPARAM_ClockType                               1
CPXPARAM_Read_DataCheck                          1
CPXPARAM_Threads                                 1
CPXPARAM_TimeLimit                               7200
CPXPARAM_MIP_Tolerances_AbsMIPGap                0
CPXPARAM_MIP_Tolerances_MIPGap                   0
CPXPARAM_MIP_Tolerances_Integrality              0
Tried aggregator 6 times.
MIP Presolve eliminated 55548 rows and 3450 columns.
MIP Presolve modified 191546 coefficients.
Aggregator did 96124 substitutions.
Reduced MIP has 637751 rows, 282041 columns, and 2085922 nonzeros.
Reduced MIP has 282041 binaries, 0 generals, 0 SOSs, and 0 indicators.
Presolve time = 10.71 sec. (5908.25 ticks)
Found incumbent of value -174365.000000 after 17.22 sec. (9593.31 ticks)
Probing time = 0.76 sec. (175.29 ticks)
Tried aggregator 1 time.
Detecting symmetries...
Reduced MIP has 637751 rows, 282041 columns, and 2085922 nonzeros.
Reduced MIP has 282041 binaries, 0 generals, 0 SOSs, and 0 indicators.
Presolve time = 6.96 sec. (3997.07 ticks)
Probing time = 0.65 sec. (165.95 ticks)
Clique table members: 953556.
MIP emphasis: balance optimality and feasibility.
MIP search method: dynamic search.
Parallel mode: none, using 1 thread.
Root relaxation solution time = 42.22 sec. (17334.00 ticks)

        Nodes                                         Cuts/
   Node  Left     Objective  IInf  Best Integer    Best Bound    ItCnt     Gap

*     0+    0                      -174365.0000    47217.0000           127.08%
      0     0    47217.0000 72598  -174365.0000    47217.0000    99415  127.08%
      0     0    46694.5000 68909  -174365.0000    Cuts: 1037   118460  126.78%
*     0+    0                         1580.0000    46694.5000              --- 
      0     0    45639.0000 69862     1580.0000    Cuts: 3428   195169     --- 
      0     0    45228.8750 71555     1580.0000    Cuts: 3545   218605     --- 
      0     0    44674.7917 75417     1580.0000    Cuts: 4469   242764     --- 
      0     0    44126.5063 77573     1580.0000    Cuts: 4641   256462     --- 
